(set-logic QF_LRA)
(declare-fun X0 () Real )
(declare-fun Y0 () Real )
(declare-fun X1 () Real )
(declare-fun Y1 () Real )
(declare-fun X2 () Real )
(declare-fun Y2 () Real )
(declare-fun X3 () Real )
(declare-fun Y3 () Real )
(declare-fun X4 () Real )
(declare-fun Y4 () Real )
(declare-fun X5 () Real )
(declare-fun Y5 () Real )
(declare-fun X6 () Real )
(declare-fun Y6 () Real )
(declare-fun X7 () Real )
(declare-fun Y7 () Real )
(declare-fun X8 () Real )
(declare-fun Y8 () Real )
(declare-fun X9 () Real )
(declare-fun Y9 () Real )
(declare-fun X10 () Real )
(declare-fun Y10 () Real )
(declare-fun X11 () Real )
(declare-fun Y11 () Real )
(declare-fun X12 () Real )
(declare-fun Y12 () Real )
(declare-fun X13 () Real )
(declare-fun Y13 () Real )
(declare-fun X14 () Real )
(declare-fun Y14 () Real )
(declare-fun X15 () Real )
(declare-fun Y15 () Real )
(declare-fun X16 () Real )
(declare-fun Y16 () Real )
(declare-fun X17 () Real )
(declare-fun Y17 () Real )
(declare-fun Z () Real )
(assert ( and  
( or ( <= ( + X0 54 ) X1 )  ( <= ( + X1 36 ) X0 )  ( <= ( + Y0 75 ) Y1 )  ( <= ( + Y1 19 ) Y0 )  )
( or ( <= ( + X0 54 ) X2 )  ( <= ( + X2 51 ) X0 )  ( <= ( + Y0 75 ) Y2 )  ( <= ( + Y2 94 ) Y0 )  )
( or ( <= ( + X0 54 ) X3 )  ( <= ( + X3 54 ) X0 )  ( <= ( + Y0 75 ) Y3 )  ( <= ( + Y3 47 ) Y0 )  )
( or ( <= ( + X0 54 ) X4 )  ( <= ( + X4 76 ) X0 )  ( <= ( + Y0 75 ) Y4 )  ( <= ( + Y4 45 ) Y0 )  )
( or ( <= ( + X0 54 ) X5 )  ( <= ( + X5 91 ) X0 )  ( <= ( + Y0 75 ) Y5 )  ( <= ( + Y5 39 ) Y0 )  )
( or ( <= ( + X0 54 ) X6 )  ( <= ( + X6 74 ) X0 )  ( <= ( + Y0 75 ) Y6 )  ( <= ( + Y6 20 ) Y0 )  )
( or ( <= ( + X0 54 ) X7 )  ( <= ( + X7 12 ) X0 )  ( <= ( + Y0 75 ) Y7 )  ( <= ( + Y7 49 ) Y0 )  )
( or ( <= ( + X0 54 ) X8 )  ( <= ( + X8 27 ) X0 )  ( <= ( + Y0 75 ) Y8 )  ( <= ( + Y8 13 ) Y0 )  )
( or ( <= ( + X0 54 ) X9 )  ( <= ( + X9 47 ) X0 )  ( <= ( + Y0 75 ) Y9 )  ( <= ( + Y9 44 ) Y0 )  )
( or ( <= ( + X0 54 ) X10 )  ( <= ( + X10 61 ) X0 )  ( <= ( + Y0 75 ) Y10 )  ( <= ( + Y10 82 ) Y0 )  )
( or ( <= ( + X0 54 ) X11 )  ( <= ( + X11 24 ) X0 )  ( <= ( + Y0 75 ) Y11 )  ( <= ( + Y11 63 ) Y0 )  )
( or ( <= ( + X0 54 ) X12 )  ( <= ( + X12 75 ) X0 )  ( <= ( + Y0 75 ) Y12 )  ( <= ( + Y12 94 ) Y0 )  )
( or ( <= ( + X0 54 ) X13 )  ( <= ( + X13 95 ) X0 )  ( <= ( + Y0 75 ) Y13 )  ( <= ( + Y13 87 ) Y0 )  )
( or ( <= ( + X0 54 ) X14 )  ( <= ( + X14 10 ) X0 )  ( <= ( + Y0 75 ) Y14 )  ( <= ( + Y14 51 ) Y0 )  )
( or ( <= ( + X0 54 ) X15 )  ( <= ( + X15 7 ) X0 )  ( <= ( + Y0 75 ) Y15 )  ( <= ( + Y15 44 ) Y0 )  )
( or ( <= ( + X0 54 ) X16 )  ( <= ( + X16 79 ) X0 )  ( <= ( + Y0 75 ) Y16 )  ( <= ( + Y16 40 ) Y0 )  )
( or ( <= ( + X0 54 ) X17 )  ( <= ( + X17 78 ) X0 )  ( <= ( + Y0 75 ) Y17 )  ( <= ( + Y17 78 ) Y0 )  )
( or ( <= ( + X1 36 ) X2 )  ( <= ( + X2 51 ) X1 )  ( <= ( + Y1 19 ) Y2 )  ( <= ( + Y2 94 ) Y1 )  )
( or ( <= ( + X1 36 ) X3 )  ( <= ( + X3 54 ) X1 )  ( <= ( + Y1 19 ) Y3 )  ( <= ( + Y3 47 ) Y1 )  )
( or ( <= ( + X1 36 ) X4 )  ( <= ( + X4 76 ) X1 )  ( <= ( + Y1 19 ) Y4 )  ( <= ( + Y4 45 ) Y1 )  )
( or ( <= ( + X1 36 ) X5 )  ( <= ( + X5 91 ) X1 )  ( <= ( + Y1 19 ) Y5 )  ( <= ( + Y5 39 ) Y1 )  )
( or ( <= ( + X1 36 ) X6 )  ( <= ( + X6 74 ) X1 )  ( <= ( + Y1 19 ) Y6 )  ( <= ( + Y6 20 ) Y1 )  )
( or ( <= ( + X1 36 ) X7 )  ( <= ( + X7 12 ) X1 )  ( <= ( + Y1 19 ) Y7 )  ( <= ( + Y7 49 ) Y1 )  )
( or ( <= ( + X1 36 ) X8 )  ( <= ( + X8 27 ) X1 )  ( <= ( + Y1 19 ) Y8 )  ( <= ( + Y8 13 ) Y1 )  )
( or ( <= ( + X1 36 ) X9 )  ( <= ( + X9 47 ) X1 )  ( <= ( + Y1 19 ) Y9 )  ( <= ( + Y9 44 ) Y1 )  )
( or ( <= ( + X1 36 ) X10 )  ( <= ( + X10 61 ) X1 )  ( <= ( + Y1 19 ) Y10 )  ( <= ( + Y10 82 ) Y1 )  )
( or ( <= ( + X1 36 ) X11 )  ( <= ( + X11 24 ) X1 )  ( <= ( + Y1 19 ) Y11 )  ( <= ( + Y11 63 ) Y1 )  )
( or ( <= ( + X1 36 ) X12 )  ( <= ( + X12 75 ) X1 )  ( <= ( + Y1 19 ) Y12 )  ( <= ( + Y12 94 ) Y1 )  )
( or ( <= ( + X1 36 ) X13 )  ( <= ( + X13 95 ) X1 )  ( <= ( + Y1 19 ) Y13 )  ( <= ( + Y13 87 ) Y1 )  )
( or ( <= ( + X1 36 ) X14 )  ( <= ( + X14 10 ) X1 )  ( <= ( + Y1 19 ) Y14 )  ( <= ( + Y14 51 ) Y1 )  )
( or ( <= ( + X1 36 ) X15 )  ( <= ( + X15 7 ) X1 )  ( <= ( + Y1 19 ) Y15 )  ( <= ( + Y15 44 ) Y1 )  )
( or ( <= ( + X1 36 ) X16 )  ( <= ( + X16 79 ) X1 )  ( <= ( + Y1 19 ) Y16 )  ( <= ( + Y16 40 ) Y1 )  )
( or ( <= ( + X1 36 ) X17 )  ( <= ( + X17 78 ) X1 )  ( <= ( + Y1 19 ) Y17 )  ( <= ( + Y17 78 ) Y1 )  )
( or ( <= ( + X2 51 ) X3 )  ( <= ( + X3 54 ) X2 )  ( <= ( + Y2 94 ) Y3 )  ( <= ( + Y3 47 ) Y2 )  )
( or ( <= ( + X2 51 ) X4 )  ( <= ( + X4 76 ) X2 )  ( <= ( + Y2 94 ) Y4 )  ( <= ( + Y4 45 ) Y2 )  )
( or ( <= ( + X2 51 ) X5 )  ( <= ( + X5 91 ) X2 )  ( <= ( + Y2 94 ) Y5 )  ( <= ( + Y5 39 ) Y2 )  )
( or ( <= ( + X2 51 ) X6 )  ( <= ( + X6 74 ) X2 )  ( <= ( + Y2 94 ) Y6 )  ( <= ( + Y6 20 ) Y2 )  )
( or ( <= ( + X2 51 ) X7 )  ( <= ( + X7 12 ) X2 )  ( <= ( + Y2 94 ) Y7 )  ( <= ( + Y7 49 ) Y2 )  )
( or ( <= ( + X2 51 ) X8 )  ( <= ( + X8 27 ) X2 )  ( <= ( + Y2 94 ) Y8 )  ( <= ( + Y8 13 ) Y2 )  )
( or ( <= ( + X2 51 ) X9 )  ( <= ( + X9 47 ) X2 )  ( <= ( + Y2 94 ) Y9 )  ( <= ( + Y9 44 ) Y2 )  )
( or ( <= ( + X2 51 ) X10 )  ( <= ( + X10 61 ) X2 )  ( <= ( + Y2 94 ) Y10 )  ( <= ( + Y10 82 ) Y2 )  )
( or ( <= ( + X2 51 ) X11 )  ( <= ( + X11 24 ) X2 )  ( <= ( + Y2 94 ) Y11 )  ( <= ( + Y11 63 ) Y2 )  )
( or ( <= ( + X2 51 ) X12 )  ( <= ( + X12 75 ) X2 )  ( <= ( + Y2 94 ) Y12 )  ( <= ( + Y12 94 ) Y2 )  )
( or ( <= ( + X2 51 ) X13 )  ( <= ( + X13 95 ) X2 )  ( <= ( + Y2 94 ) Y13 )  ( <= ( + Y13 87 ) Y2 )  )
( or ( <= ( + X2 51 ) X14 )  ( <= ( + X14 10 ) X2 )  ( <= ( + Y2 94 ) Y14 )  ( <= ( + Y14 51 ) Y2 )  )
( or ( <= ( + X2 51 ) X15 )  ( <= ( + X15 7 ) X2 )  ( <= ( + Y2 94 ) Y15 )  ( <= ( + Y15 44 ) Y2 )  )
( or ( <= ( + X2 51 ) X16 )  ( <= ( + X16 79 ) X2 )  ( <= ( + Y2 94 ) Y16 )  ( <= ( + Y16 40 ) Y2 )  )
( or ( <= ( + X2 51 ) X17 )  ( <= ( + X17 78 ) X2 )  ( <= ( + Y2 94 ) Y17 )  ( <= ( + Y17 78 ) Y2 )  )
( or ( <= ( + X3 54 ) X4 )  ( <= ( + X4 76 ) X3 )  ( <= ( + Y3 47 ) Y4 )  ( <= ( + Y4 45 ) Y3 )  )
( or ( <= ( + X3 54 ) X5 )  ( <= ( + X5 91 ) X3 )  ( <= ( + Y3 47 ) Y5 )  ( <= ( + Y5 39 ) Y3 )  )
( or ( <= ( + X3 54 ) X6 )  ( <= ( + X6 74 ) X3 )  ( <= ( + Y3 47 ) Y6 )  ( <= ( + Y6 20 ) Y3 )  )
( or ( <= ( + X3 54 ) X7 )  ( <= ( + X7 12 ) X3 )  ( <= ( + Y3 47 ) Y7 )  ( <= ( + Y7 49 ) Y3 )  )
( or ( <= ( + X3 54 ) X8 )  ( <= ( + X8 27 ) X3 )  ( <= ( + Y3 47 ) Y8 )  ( <= ( + Y8 13 ) Y3 )  )
( or ( <= ( + X3 54 ) X9 )  ( <= ( + X9 47 ) X3 )  ( <= ( + Y3 47 ) Y9 )  ( <= ( + Y9 44 ) Y3 )  )
( or ( <= ( + X3 54 ) X10 )  ( <= ( + X10 61 ) X3 )  ( <= ( + Y3 47 ) Y10 )  ( <= ( + Y10 82 ) Y3 )  )
( or ( <= ( + X3 54 ) X11 )  ( <= ( + X11 24 ) X3 )  ( <= ( + Y3 47 ) Y11 )  ( <= ( + Y11 63 ) Y3 )  )
( or ( <= ( + X3 54 ) X12 )  ( <= ( + X12 75 ) X3 )  ( <= ( + Y3 47 ) Y12 )  ( <= ( + Y12 94 ) Y3 )  )
( or ( <= ( + X3 54 ) X13 )  ( <= ( + X13 95 ) X3 )  ( <= ( + Y3 47 ) Y13 )  ( <= ( + Y13 87 ) Y3 )  )
( or ( <= ( + X3 54 ) X14 )  ( <= ( + X14 10 ) X3 )  ( <= ( + Y3 47 ) Y14 )  ( <= ( + Y14 51 ) Y3 )  )
( or ( <= ( + X3 54 ) X15 )  ( <= ( + X15 7 ) X3 )  ( <= ( + Y3 47 ) Y15 )  ( <= ( + Y15 44 ) Y3 )  )
( or ( <= ( + X3 54 ) X16 )  ( <= ( + X16 79 ) X3 )  ( <= ( + Y3 47 ) Y16 )  ( <= ( + Y16 40 ) Y3 )  )
( or ( <= ( + X3 54 ) X17 )  ( <= ( + X17 78 ) X3 )  ( <= ( + Y3 47 ) Y17 )  ( <= ( + Y17 78 ) Y3 )  )
( or ( <= ( + X4 76 ) X5 )  ( <= ( + X5 91 ) X4 )  ( <= ( + Y4 45 ) Y5 )  ( <= ( + Y5 39 ) Y4 )  )
( or ( <= ( + X4 76 ) X6 )  ( <= ( + X6 74 ) X4 )  ( <= ( + Y4 45 ) Y6 )  ( <= ( + Y6 20 ) Y4 )  )
( or ( <= ( + X4 76 ) X7 )  ( <= ( + X7 12 ) X4 )  ( <= ( + Y4 45 ) Y7 )  ( <= ( + Y7 49 ) Y4 )  )
( or ( <= ( + X4 76 ) X8 )  ( <= ( + X8 27 ) X4 )  ( <= ( + Y4 45 ) Y8 )  ( <= ( + Y8 13 ) Y4 )  )
( or ( <= ( + X4 76 ) X9 )  ( <= ( + X9 47 ) X4 )  ( <= ( + Y4 45 ) Y9 )  ( <= ( + Y9 44 ) Y4 )  )
( or ( <= ( + X4 76 ) X10 )  ( <= ( + X10 61 ) X4 )  ( <= ( + Y4 45 ) Y10 )  ( <= ( + Y10 82 ) Y4 )  )
( or ( <= ( + X4 76 ) X11 )  ( <= ( + X11 24 ) X4 )  ( <= ( + Y4 45 ) Y11 )  ( <= ( + Y11 63 ) Y4 )  )
( or ( <= ( + X4 76 ) X12 )  ( <= ( + X12 75 ) X4 )  ( <= ( + Y4 45 ) Y12 )  ( <= ( + Y12 94 ) Y4 )  )
( or ( <= ( + X4 76 ) X13 )  ( <= ( + X13 95 ) X4 )  ( <= ( + Y4 45 ) Y13 )  ( <= ( + Y13 87 ) Y4 )  )
( or ( <= ( + X4 76 ) X14 )  ( <= ( + X14 10 ) X4 )  ( <= ( + Y4 45 ) Y14 )  ( <= ( + Y14 51 ) Y4 )  )
( or ( <= ( + X4 76 ) X15 )  ( <= ( + X15 7 ) X4 )  ( <= ( + Y4 45 ) Y15 )  ( <= ( + Y15 44 ) Y4 )  )
( or ( <= ( + X4 76 ) X16 )  ( <= ( + X16 79 ) X4 )  ( <= ( + Y4 45 ) Y16 )  ( <= ( + Y16 40 ) Y4 )  )
( or ( <= ( + X4 76 ) X17 )  ( <= ( + X17 78 ) X4 )  ( <= ( + Y4 45 ) Y17 )  ( <= ( + Y17 78 ) Y4 )  )
( or ( <= ( + X5 91 ) X6 )  ( <= ( + X6 74 ) X5 )  ( <= ( + Y5 39 ) Y6 )  ( <= ( + Y6 20 ) Y5 )  )
( or ( <= ( + X5 91 ) X7 )  ( <= ( + X7 12 ) X5 )  ( <= ( + Y5 39 ) Y7 )  ( <= ( + Y7 49 ) Y5 )  )
( or ( <= ( + X5 91 ) X8 )  ( <= ( + X8 27 ) X5 )  ( <= ( + Y5 39 ) Y8 )  ( <= ( + Y8 13 ) Y5 )  )
( or ( <= ( + X5 91 ) X9 )  ( <= ( + X9 47 ) X5 )  ( <= ( + Y5 39 ) Y9 )  ( <= ( + Y9 44 ) Y5 )  )
( or ( <= ( + X5 91 ) X10 )  ( <= ( + X10 61 ) X5 )  ( <= ( + Y5 39 ) Y10 )  ( <= ( + Y10 82 ) Y5 )  )
( or ( <= ( + X5 91 ) X11 )  ( <= ( + X11 24 ) X5 )  ( <= ( + Y5 39 ) Y11 )  ( <= ( + Y11 63 ) Y5 )  )
( or ( <= ( + X5 91 ) X12 )  ( <= ( + X12 75 ) X5 )  ( <= ( + Y5 39 ) Y12 )  ( <= ( + Y12 94 ) Y5 )  )
( or ( <= ( + X5 91 ) X13 )  ( <= ( + X13 95 ) X5 )  ( <= ( + Y5 39 ) Y13 )  ( <= ( + Y13 87 ) Y5 )  )
( or ( <= ( + X5 91 ) X14 )  ( <= ( + X14 10 ) X5 )  ( <= ( + Y5 39 ) Y14 )  ( <= ( + Y14 51 ) Y5 )  )
( or ( <= ( + X5 91 ) X15 )  ( <= ( + X15 7 ) X5 )  ( <= ( + Y5 39 ) Y15 )  ( <= ( + Y15 44 ) Y5 )  )
( or ( <= ( + X5 91 ) X16 )  ( <= ( + X16 79 ) X5 )  ( <= ( + Y5 39 ) Y16 )  ( <= ( + Y16 40 ) Y5 )  )
( or ( <= ( + X5 91 ) X17 )  ( <= ( + X17 78 ) X5 )  ( <= ( + Y5 39 ) Y17 )  ( <= ( + Y17 78 ) Y5 )  )
( or ( <= ( + X6 74 ) X7 )  ( <= ( + X7 12 ) X6 )  ( <= ( + Y6 20 ) Y7 )  ( <= ( + Y7 49 ) Y6 )  )
( or ( <= ( + X6 74 ) X8 )  ( <= ( + X8 27 ) X6 )  ( <= ( + Y6 20 ) Y8 )  ( <= ( + Y8 13 ) Y6 )  )
( or ( <= ( + X6 74 ) X9 )  ( <= ( + X9 47 ) X6 )  ( <= ( + Y6 20 ) Y9 )  ( <= ( + Y9 44 ) Y6 )  )
( or ( <= ( + X6 74 ) X10 )  ( <= ( + X10 61 ) X6 )  ( <= ( + Y6 20 ) Y10 )  ( <= ( + Y10 82 ) Y6 )  )
( or ( <= ( + X6 74 ) X11 )  ( <= ( + X11 24 ) X6 )  ( <= ( + Y6 20 ) Y11 )  ( <= ( + Y11 63 ) Y6 )  )
( or ( <= ( + X6 74 ) X12 )  ( <= ( + X12 75 ) X6 )  ( <= ( + Y6 20 ) Y12 )  ( <= ( + Y12 94 ) Y6 )  )
( or ( <= ( + X6 74 ) X13 )  ( <= ( + X13 95 ) X6 )  ( <= ( + Y6 20 ) Y13 )  ( <= ( + Y13 87 ) Y6 )  )
( or ( <= ( + X6 74 ) X14 )  ( <= ( + X14 10 ) X6 )  ( <= ( + Y6 20 ) Y14 )  ( <= ( + Y14 51 ) Y6 )  )
( or ( <= ( + X6 74 ) X15 )  ( <= ( + X15 7 ) X6 )  ( <= ( + Y6 20 ) Y15 )  ( <= ( + Y15 44 ) Y6 )  )
( or ( <= ( + X6 74 ) X16 )  ( <= ( + X16 79 ) X6 )  ( <= ( + Y6 20 ) Y16 )  ( <= ( + Y16 40 ) Y6 )  )
( or ( <= ( + X6 74 ) X17 )  ( <= ( + X17 78 ) X6 )  ( <= ( + Y6 20 ) Y17 )  ( <= ( + Y17 78 ) Y6 )  )
( or ( <= ( + X7 12 ) X8 )  ( <= ( + X8 27 ) X7 )  ( <= ( + Y7 49 ) Y8 )  ( <= ( + Y8 13 ) Y7 )  )
( or ( <= ( + X7 12 ) X9 )  ( <= ( + X9 47 ) X7 )  ( <= ( + Y7 49 ) Y9 )  ( <= ( + Y9 44 ) Y7 )  )
( or ( <= ( + X7 12 ) X10 )  ( <= ( + X10 61 ) X7 )  ( <= ( + Y7 49 ) Y10 )  ( <= ( + Y10 82 ) Y7 )  )
( or ( <= ( + X7 12 ) X11 )  ( <= ( + X11 24 ) X7 )  ( <= ( + Y7 49 ) Y11 )  ( <= ( + Y11 63 ) Y7 )  )
( or ( <= ( + X7 12 ) X12 )  ( <= ( + X12 75 ) X7 )  ( <= ( + Y7 49 ) Y12 )  ( <= ( + Y12 94 ) Y7 )  )
( or ( <= ( + X7 12 ) X13 )  ( <= ( + X13 95 ) X7 )  ( <= ( + Y7 49 ) Y13 )  ( <= ( + Y13 87 ) Y7 )  )
( or ( <= ( + X7 12 ) X14 )  ( <= ( + X14 10 ) X7 )  ( <= ( + Y7 49 ) Y14 )  ( <= ( + Y14 51 ) Y7 )  )
( or ( <= ( + X7 12 ) X15 )  ( <= ( + X15 7 ) X7 )  ( <= ( + Y7 49 ) Y15 )  ( <= ( + Y15 44 ) Y7 )  )
( or ( <= ( + X7 12 ) X16 )  ( <= ( + X16 79 ) X7 )  ( <= ( + Y7 49 ) Y16 )  ( <= ( + Y16 40 ) Y7 )  )
( or ( <= ( + X7 12 ) X17 )  ( <= ( + X17 78 ) X7 )  ( <= ( + Y7 49 ) Y17 )  ( <= ( + Y17 78 ) Y7 )  )
( or ( <= ( + X8 27 ) X9 )  ( <= ( + X9 47 ) X8 )  ( <= ( + Y8 13 ) Y9 )  ( <= ( + Y9 44 ) Y8 )  )
( or ( <= ( + X8 27 ) X10 )  ( <= ( + X10 61 ) X8 )  ( <= ( + Y8 13 ) Y10 )  ( <= ( + Y10 82 ) Y8 )  )
( or ( <= ( + X8 27 ) X11 )  ( <= ( + X11 24 ) X8 )  ( <= ( + Y8 13 ) Y11 )  ( <= ( + Y11 63 ) Y8 )  )
( or ( <= ( + X8 27 ) X12 )  ( <= ( + X12 75 ) X8 )  ( <= ( + Y8 13 ) Y12 )  ( <= ( + Y12 94 ) Y8 )  )
( or ( <= ( + X8 27 ) X13 )  ( <= ( + X13 95 ) X8 )  ( <= ( + Y8 13 ) Y13 )  ( <= ( + Y13 87 ) Y8 )  )
( or ( <= ( + X8 27 ) X14 )  ( <= ( + X14 10 ) X8 )  ( <= ( + Y8 13 ) Y14 )  ( <= ( + Y14 51 ) Y8 )  )
( or ( <= ( + X8 27 ) X15 )  ( <= ( + X15 7 ) X8 )  ( <= ( + Y8 13 ) Y15 )  ( <= ( + Y15 44 ) Y8 )  )
( or ( <= ( + X8 27 ) X16 )  ( <= ( + X16 79 ) X8 )  ( <= ( + Y8 13 ) Y16 )  ( <= ( + Y16 40 ) Y8 )  )
( or ( <= ( + X8 27 ) X17 )  ( <= ( + X17 78 ) X8 )  ( <= ( + Y8 13 ) Y17 )  ( <= ( + Y17 78 ) Y8 )  )
( or ( <= ( + X9 47 ) X10 )  ( <= ( + X10 61 ) X9 )  ( <= ( + Y9 44 ) Y10 )  ( <= ( + Y10 82 ) Y9 )  )
( or ( <= ( + X9 47 ) X11 )  ( <= ( + X11 24 ) X9 )  ( <= ( + Y9 44 ) Y11 )  ( <= ( + Y11 63 ) Y9 )  )
( or ( <= ( + X9 47 ) X12 )  ( <= ( + X12 75 ) X9 )  ( <= ( + Y9 44 ) Y12 )  ( <= ( + Y12 94 ) Y9 )  )
( or ( <= ( + X9 47 ) X13 )  ( <= ( + X13 95 ) X9 )  ( <= ( + Y9 44 ) Y13 )  ( <= ( + Y13 87 ) Y9 )  )
( or ( <= ( + X9 47 ) X14 )  ( <= ( + X14 10 ) X9 )  ( <= ( + Y9 44 ) Y14 )  ( <= ( + Y14 51 ) Y9 )  )
( or ( <= ( + X9 47 ) X15 )  ( <= ( + X15 7 ) X9 )  ( <= ( + Y9 44 ) Y15 )  ( <= ( + Y15 44 ) Y9 )  )
( or ( <= ( + X9 47 ) X16 )  ( <= ( + X16 79 ) X9 )  ( <= ( + Y9 44 ) Y16 )  ( <= ( + Y16 40 ) Y9 )  )
( or ( <= ( + X9 47 ) X17 )  ( <= ( + X17 78 ) X9 )  ( <= ( + Y9 44 ) Y17 )  ( <= ( + Y17 78 ) Y9 )  )
( or ( <= ( + X10 61 ) X11 )  ( <= ( + X11 24 ) X10 )  ( <= ( + Y10 82 ) Y11 )  ( <= ( + Y11 63 ) Y10 )  )
( or ( <= ( + X10 61 ) X12 )  ( <= ( + X12 75 ) X10 )  ( <= ( + Y10 82 ) Y12 )  ( <= ( + Y12 94 ) Y10 )  )
( or ( <= ( + X10 61 ) X13 )  ( <= ( + X13 95 ) X10 )  ( <= ( + Y10 82 ) Y13 )  ( <= ( + Y13 87 ) Y10 )  )
( or ( <= ( + X10 61 ) X14 )  ( <= ( + X14 10 ) X10 )  ( <= ( + Y10 82 ) Y14 )  ( <= ( + Y14 51 ) Y10 )  )
( or ( <= ( + X10 61 ) X15 )  ( <= ( + X15 7 ) X10 )  ( <= ( + Y10 82 ) Y15 )  ( <= ( + Y15 44 ) Y10 )  )
( or ( <= ( + X10 61 ) X16 )  ( <= ( + X16 79 ) X10 )  ( <= ( + Y10 82 ) Y16 )  ( <= ( + Y16 40 ) Y10 )  )
( or ( <= ( + X10 61 ) X17 )  ( <= ( + X17 78 ) X10 )  ( <= ( + Y10 82 ) Y17 )  ( <= ( + Y17 78 ) Y10 )  )
( or ( <= ( + X11 24 ) X12 )  ( <= ( + X12 75 ) X11 )  ( <= ( + Y11 63 ) Y12 )  ( <= ( + Y12 94 ) Y11 )  )
( or ( <= ( + X11 24 ) X13 )  ( <= ( + X13 95 ) X11 )  ( <= ( + Y11 63 ) Y13 )  ( <= ( + Y13 87 ) Y11 )  )
( or ( <= ( + X11 24 ) X14 )  ( <= ( + X14 10 ) X11 )  ( <= ( + Y11 63 ) Y14 )  ( <= ( + Y14 51 ) Y11 )  )
( or ( <= ( + X11 24 ) X15 )  ( <= ( + X15 7 ) X11 )  ( <= ( + Y11 63 ) Y15 )  ( <= ( + Y15 44 ) Y11 )  )
( or ( <= ( + X11 24 ) X16 )  ( <= ( + X16 79 ) X11 )  ( <= ( + Y11 63 ) Y16 )  ( <= ( + Y16 40 ) Y11 )  )
( or ( <= ( + X11 24 ) X17 )  ( <= ( + X17 78 ) X11 )  ( <= ( + Y11 63 ) Y17 )  ( <= ( + Y17 78 ) Y11 )  )
( or ( <= ( + X12 75 ) X13 )  ( <= ( + X13 95 ) X12 )  ( <= ( + Y12 94 ) Y13 )  ( <= ( + Y13 87 ) Y12 )  )
( or ( <= ( + X12 75 ) X14 )  ( <= ( + X14 10 ) X12 )  ( <= ( + Y12 94 ) Y14 )  ( <= ( + Y14 51 ) Y12 )  )
( or ( <= ( + X12 75 ) X15 )  ( <= ( + X15 7 ) X12 )  ( <= ( + Y12 94 ) Y15 )  ( <= ( + Y15 44 ) Y12 )  )
( or ( <= ( + X12 75 ) X16 )  ( <= ( + X16 79 ) X12 )  ( <= ( + Y12 94 ) Y16 )  ( <= ( + Y16 40 ) Y12 )  )
( or ( <= ( + X12 75 ) X17 )  ( <= ( + X17 78 ) X12 )  ( <= ( + Y12 94 ) Y17 )  ( <= ( + Y17 78 ) Y12 )  )
( or ( <= ( + X13 95 ) X14 )  ( <= ( + X14 10 ) X13 )  ( <= ( + Y13 87 ) Y14 )  ( <= ( + Y14 51 ) Y13 )  )
( or ( <= ( + X13 95 ) X15 )  ( <= ( + X15 7 ) X13 )  ( <= ( + Y13 87 ) Y15 )  ( <= ( + Y15 44 ) Y13 )  )
( or ( <= ( + X13 95 ) X16 )  ( <= ( + X16 79 ) X13 )  ( <= ( + Y13 87 ) Y16 )  ( <= ( + Y16 40 ) Y13 )  )
( or ( <= ( + X13 95 ) X17 )  ( <= ( + X17 78 ) X13 )  ( <= ( + Y13 87 ) Y17 )  ( <= ( + Y17 78 ) Y13 )  )
( or ( <= ( + X14 10 ) X15 )  ( <= ( + X15 7 ) X14 )  ( <= ( + Y14 51 ) Y15 )  ( <= ( + Y15 44 ) Y14 )  )
( or ( <= ( + X14 10 ) X16 )  ( <= ( + X16 79 ) X14 )  ( <= ( + Y14 51 ) Y16 )  ( <= ( + Y16 40 ) Y14 )  )
( or ( <= ( + X14 10 ) X17 )  ( <= ( + X17 78 ) X14 )  ( <= ( + Y14 51 ) Y17 )  ( <= ( + Y17 78 ) Y14 )  )
( or ( <= ( + X15 7 ) X16 )  ( <= ( + X16 79 ) X15 )  ( <= ( + Y15 44 ) Y16 )  ( <= ( + Y16 40 ) Y15 )  )
( or ( <= ( + X15 7 ) X17 )  ( <= ( + X17 78 ) X15 )  ( <= ( + Y15 44 ) Y17 )  ( <= ( + Y17 78 ) Y15 )  )
( or ( <= ( + X16 79 ) X17 )  ( <= ( + X17 78 ) X16 )  ( <= ( + Y16 40 ) Y17 )  ( <= ( + Y17 78 ) Y16 )  )
( >= X0 0)
( <= ( + X0 54) Z)
( >= Y0 0)
( <= ( + Y0 75 ) 212)
( >= X1 0)
( <= ( + X1 36) Z)
( >= Y1 0)
( <= ( + Y1 19 ) 212)
( >= X2 0)
( <= ( + X2 51) Z)
( >= Y2 0)
( <= ( + Y2 94 ) 212)
( >= X3 0)
( <= ( + X3 54) Z)
( >= Y3 0)
( <= ( + Y3 47 ) 212)
( >= X4 0)
( <= ( + X4 76) Z)
( >= Y4 0)
( <= ( + Y4 45 ) 212)
( >= X5 0)
( <= ( + X5 91) Z)
( >= Y5 0)
( <= ( + Y5 39 ) 212)
( >= X6 0)
( <= ( + X6 74) Z)
( >= Y6 0)
( <= ( + Y6 20 ) 212)
( >= X7 0)
( <= ( + X7 12) Z)
( >= Y7 0)
( <= ( + Y7 49 ) 212)
( >= X8 0)
( <= ( + X8 27) Z)
( >= Y8 0)
( <= ( + Y8 13 ) 212)
( >= X9 0)
( <= ( + X9 47) Z)
( >= Y9 0)
( <= ( + Y9 44 ) 212)
( >= X10 0)
( <= ( + X10 61) Z)
( >= Y10 0)
( <= ( + Y10 82 ) 212)
( >= X11 0)
( <= ( + X11 24) Z)
( >= Y11 0)
( <= ( + Y11 63 ) 212)
( >= X12 0)
( <= ( + X12 75) Z)
( >= Y12 0)
( <= ( + Y12 94 ) 212)
( >= X13 0)
( <= ( + X13 95) Z)
( >= Y13 0)
( <= ( + Y13 87 ) 212)
( >= X14 0)
( <= ( + X14 10) Z)
( >= Y14 0)
( <= ( + Y14 51 ) 212)
( >= X15 0)
( <= ( + X15 7) Z)
( >= Y15 0)
( <= ( + Y15 44 ) 212)
( >= X16 0)
( <= ( + X16 79) Z)
( >= Y16 0)
( <= ( + Y16 40 ) 212)
( >= X17 0)
( <= ( + X17 78) Z)
( >= Y17 0)
( <= ( + Y17 78 ) 212)
) )
(minimize Z)
(check-sat)
